[2026-03-24T00:45:37.252Z] Pipeline "set_prova_set_prova_set_s008_g001" → 2026_03_24_00_45_37_set_prova_set_prova_set_s008_g001_max.sol
Set parameter WLSAccessID
Set parameter WLSSecret
Set parameter LicenseID to value 2792458
Set parameter LogFile to value "gurobi.log"
Using license file /root/gurobi.lic
Academic license 2792458 - for non-commercial use only - registered to an___@studenti.unipg.it

Gurobi Optimizer version 13.0.1 build v13.0.1rc0 (linux64 - "Ubuntu 24.04.4 LTS")
Copyright (c) 2026, Gurobi Optimization, LLC

Warning: Duplicate section found (read 'binary') - Is a variable name equal to an LP file format keyword?
Warning: Duplicate section found (read 'binary') - Is a variable name equal to an LP file format keyword?
Warning: Duplicate section found (read 'binary') - Is a variable name equal to an LP file format keyword?
Warning: Duplicate section found (read 'binary') - Is a variable name equal to an LP file format keyword?
Warning: Duplicate section found (read 'binary') - Is a variable name equal to an LP file format keyword?
Warning: Duplicate section found (read 'binary') - Is a variable name equal to an LP file format keyword?
Warning: Duplicate section found (read 'binary') - Is a variable name equal to an LP file format keyword?
Warning: Duplicate section found (read 'binary') - Is a variable name equal to an LP file format keyword?
Warning: Duplicate section found (read 'binary') - Is a variable name equal to an LP file format keyword?
Warning: Duplicate section found (read 'binary') - Is a variable name equal to an LP file format keyword?
Warning: Further warnings of this type will be omitted.
Read LP format model from file /root/bgw/data/uploads/2026_03_24_00_45_37_set_prova_set_prova_set_s008_g001_max.lp
Reading time = 0.00 seconds
: 1509 rows, 220 columns, 4208 nonzeros

Using Gurobi shared library /opt/gurobi1301/linux64/lib/libgurobi.so.13.0.1

CPU model: AMD EPYC-Genoa Processor, instruction set [SSE2|AVX|AVX2|AVX512]
Thread count: 16 physical cores, 16 logical processors, using up to 16 threads

Academic license 2792458 - for non-commercial use only - registered to an___@studenti.unipg.it
Optimize a model with 1509 rows, 220 columns and 4208 nonzeros (Max)
Model fingerprint: 0x046e8d93
Model has 32 linear objective coefficients
Variable types: 47 continuous, 173 integer (173 binary)
Coefficient statistics:
  Matrix range     [1e+00, 2e+01]
  Objective range  [1e+00, 1e+00]
  Bounds range     [1e+00, 1e+00]
  RHS range        [1e+00, 2e+01]

Found heuristic solution: objective 32.0000000
Presolve removed 529 rows and 74 columns
Presolve time: 0.00s
Presolved: 980 rows, 146 columns, 3084 nonzeros
Variable types: 0 continuous, 146 integer (134 binary)
Found heuristic solution: objective 48.0000000

Root relaxation: objective 1.490000e+02, 167 iterations, 0.00 seconds (0.00 work units)

    Nodes    |    Current Node    |     Objective Bounds      |     Work
 Expl Unexpl |  Obj  Depth IntInf | Incumbent    BestBd   Gap | It/Node Time

     0     0  149.00000    0   81   48.00000  149.00000   210%     -    0s
H    0     0                      51.0000000  149.00000   192%     -    0s
H    0     0                      53.0000000  149.00000   181%     -    0s
H    0     0                      54.0000000  149.00000   176%     -    0s
H    0     0                      58.0000000  149.00000   157%     -    0s
H    0     0                      59.0000000  149.00000   153%     -    0s
     0     0  149.00000    0   78   59.00000  149.00000   153%     -    0s
H    0     0                      61.0000000  149.00000   144%     -    0s
H    0     0                      62.0000000  149.00000   140%     -    0s
H    0     0                      65.0000000  149.00000   129%     -    0s
     0     0  149.00000    0   78   65.00000  149.00000   129%     -    0s
     0     0  149.00000    0   70   65.00000  149.00000   129%     -    0s
H    0     0                      68.0000000  149.00000   119%     -    0s
H    0     0                      69.0000000  149.00000   116%     -    0s
H    0     0                      70.0000000  149.00000   113%     -    0s
     0     0  149.00000    0   74   70.00000  149.00000   113%     -    0s
     0     0  149.00000    0   73   70.00000  149.00000   113%     -    0s
     0     0  149.00000    0   71   70.00000  149.00000   113%     -    0s
     0     0  149.00000    0   58   70.00000  149.00000   113%     -    0s
     0     0  149.00000    0   76   70.00000  149.00000   113%     -    0s
     0     0  149.00000    0   60   70.00000  149.00000   113%     -    0s
H    0     0                      73.0000000  149.00000   104%     -    0s
     0     0  149.00000    0   72   73.00000  149.00000   104%     -    0s
     0     0  149.00000    0   60   73.00000  149.00000   104%     -    0s
     0     0  149.00000    0   73   73.00000  149.00000   104%     -    0s
     0     0  149.00000    0   61   73.00000  149.00000   104%     -    0s
H    0     0                      76.0000000  149.00000  96.1%     -    0s
H    0     0                      78.0000000  149.00000  91.0%     -    0s
     0     0  148.00000    0   74   78.00000  148.00000  89.7%     -    0s
     0     0  148.00000    0   60   78.00000  148.00000  89.7%     -    0s
     0     0  147.46154    0   60   78.00000  147.46154  89.1%     -    0s
     0     0  147.46154    0   58   78.00000  147.46154  89.1%     -    0s
     0     2  147.46154    0   58   78.00000  147.46154  89.1%     -    0s
H  273   232                      83.0000000  147.46154  77.7%  61.0    0s
H 2173  1316                      85.0000000  147.46154  73.5%  37.3    0s
 35518 12826   88.76923   40   45   85.00000  124.76923  46.8%  36.3    5s
 89522 27525  109.69231   31   58   85.00000  115.46154  35.8%  35.5   10s
 150422 39297 infeasible   41        85.00000  110.25641  29.7%  35.2   15s
 210160 48254 infeasible   36        85.00000  106.92308  25.8%  35.1   20s
 267412 54330   97.24176   38   61   85.00000  104.74359  23.2%  34.9   25s
 327117 59213     cutoff   35        85.00000  102.84615  21.0%  34.7   30s
 384962 62034   95.92308   37   59   85.00000  101.42308  19.3%  34.6   35s
 442595 63399 infeasible   40        85.00000  100.00000  17.6%  34.5   40s
 502957 63643 infeasible   39        85.00000   98.94359  16.4%  34.4   45s
 562533 62152 infeasible   39        85.00000   97.89349  15.2%  34.3   50s
 620506 59056 infeasible   39        85.00000   96.92308  14.0%  34.3   55s
 677834 54355   95.07692   36   51   85.00000   95.92308  12.9%  34.4   60s
 725505 48949   95.00000   37   35   85.00000   95.07692  11.9%  34.5   65s
 777008 41673 infeasible   37        85.00000   94.12048  10.7%  34.6   70s
 831965 31763 infeasible   43        85.00000   92.93590  9.34%  34.7   75s
 883417 18366   88.30769   48   28   85.00000   91.23077  7.33%  34.9   80s

Cutting planes:
  Inf proof: 2

Explored 924790 nodes (32200480 simplex iterations) in 83.45 seconds (145.95 work units)
Thread count was 16 (of 16 available processors)

Solution count 10: 85 85 83 ... 69

Optimal solution found (tolerance 1.00e-04)
Best objective 8.500000000000e+01, best bound 8.500000000000e+01, gap 0.0000%

Wrote result file '/root/bgw/data/results/2026_03_24_00_45_37_set_prova_set_prova_set_s008_g001_max.sol'

